letting maxWeight=95
letting values=[32, 27, 18, 16, 21, 4, 12, 26, 33, 3, 21, 31, 6, 15, 35, 30, 7, 36, 35, 30, 17, 29, 10, 27, 33, 18, 6, 30, 10, 11, 25, 2, 7, 3, 28, 10, 17, 25, 30, 16, 20, 14, 4, 5, 35, 1, 23, 9, 34, 37, 30, 7, 18, 11, 16, 15, 31, 1]
letting weights=[23, 19, 19, 12, 13, 20, 25, 9, 22, 23, 4, 2, 21, 13, 6, 7, 9, 12, 14, 1, 17, 5, 18, 24, 4, 25, 7, 16, 6, 17, 11, 20, 4, 15, 24, 5, 22, 22, 12, 14, 6, 20, 5, 11, 15, 20, 2, 1, 23, 5, 11, 2, 8, 8, 20, 10, 10, 16]
